424 5
10 10 10 10 10 

0 0 0 0 0 0 5 2 14 26 38 50 
0 0 0 0 0 0 4 3 6 11 12 
8 0 1 0 0 0 1 4 
10 0 1 0 0 0 1 5 
3 0 3 0 0 0 1 7 
7 0 5 0 0 0 2 7 333 
9 0 2 0 0 0 1 8 
8 0 1 0 0 0 1 9 
3 0 2 0 0 0 1 10 
10 0 2 0 0 0 1 13 
8 0 3 0 0 0 1 13 
3 0 5 0 0 0 1 13 
0 0 0 0 0 0 1 62 
0 0 0 0 0 0 3 15 17 422 
1 1 0 0 0 0 1 16 
6 2 0 0 0 0 2 20 18 
1 2 0 0 0 0 2 20 18 
6 1 0 0 0 0 1 19 
3 1 0 0 0 0 1 21 
3 5 0 0 0 0 1 21 
4 2 0 0 0 0 1 22 
9 3 0 0 0 0 2 24 23 
5 4 0 0 0 0 1 25 
1 4 0 0 0 0 1 25 
0 0 0 0 0 0 1 62 
0 0 0 0 0 0 2 27 28 
2 0 1 0 0 0 2 31 29 
3 0 2 0 0 0 2 31 30 
6 0 2 0 0 0 1 30 
7 0 2 0 0 0 2 33 32 
1 0 3 0 0 0 1 32 
7 0 4 0 0 0 1 34 
7 0 3 0 0 0 2 34 192 
10 0 2 0 0 0 1 35 
3 0 3 0 0 0 1 36 
9 0 3 0 0 0 1 37 
0 0 0 0 0 0 1 62 
0 0 0 0 0 0 3 39 44 48 
1 0 0 0 0 1 2 46 40 
2 0 0 0 0 5 1 41 
6 0 0 0 0 1 1 42 
7 0 0 0 0 3 1 43 
1 0 0 0 0 3 2 45 103 
2 0 0 0 0 2 1 45 
9 0 0 0 0 3 1 47 
3 0 0 0 0 1 1 47 
10 0 0 0 0 5 1 49 
2 0 0 0 0 1 1 49 
0 0 0 0 0 0 1 62 
0 0 0 0 0 0 1 51 
4 1 0 0 0 0 2 52 80 
7 1 0 0 0 0 1 53 
2 3 0 0 0 0 2 55 54 
10 3 0 0 0 0 2 57 56 
10 3 0 0 0 0 2 57 56 
9 1 0 0 0 0 2 59 58 
9 5 0 0 0 0 1 58 
10 4 0 0 0 0 1 60 
6 3 0 0 0 0 1 60 
1 1 0 0 0 0 1 61 
0 0 0 0 0 0 1 62 
0 0 0 0 0 0 5 63 75 87 99 111 
0 0 0 0 0 0 2 64 65 
5 0 0 0 0 1 2 69 67 
2 0 0 0 0 2 1 66 
3 0 0 0 0 3 1 67 
6 0 0 0 0 3 1 68 
8 0 0 0 0 1 1 70 
8 0 0 0 0 3 2 70 315 
4 0 0 0 0 3 2 73 71 
8 0 0 0 0 2 1 72 
8 0 0 0 0 2 1 74 
3 0 0 0 0 5 1 74 
0 0 0 0 0 0 1 123 
0 0 0 0 0 0 1 76 
3 0 0 0 1 0 2 78 77 
8 0 0 0 2 0 2 85 79 
9 0 0 0 3 0 2 85 80 
2 0 0 0 4 0 1 80 
3 0 0 0 2 0 2 84 81 
7 0 0 0 2 0 1 82 
6 0 0 0 3 0 2 83 102 
9 0 0 0 2 0 1 86 
2 0 0 0 4 0 1 86 
5 0 0 0 2 0 1 86 
0 0 0 0 0 0 1 123 
0 0 0 0 0 0 1 88 
8 1 0 0 0 0 2 97 89 
3 4 0 0 0 0 3 96 95 90 
7 2 0 0 0 0 1 91 
8 1 0 0 0 0 1 92 
1 3 0 0 0 0 1 93 
2 2 0 0 0 0 1 94 
2 6 0 0 0 0 1 98 
3 3 0 0 0 0 1 98 
10 1 0 0 0 0 2 98 404 
10 2 0 0 0 0 1 98 
0 0 0 0 0 0 1 123 
0 0 0 0 0 0 2 100 322 
4 0 0 1 0 0 2 107 101 
4 0 0 5 0 0 2 105 102 
2 0 0 5 0 0 1 103 
8 0 0 2 0 0 1 104 
6 0 0 1 0 0 2 109 106 
1 0 0 1 0 0 2 109 108 
10 0 0 4 0 0 1 108 
1 0 0 2 0 0 1 108 
2 0 0 2 0 0 1 110 
6 0 0 2 0 0 1 110 
0 0 0 0 0 0 1 123 
0 0 0 0 0 0 3 112 115 118 
2 0 0 1 0 0 1 113 
3 0 0 1 0 0 2 121 114 
4 0 0 4 0 0 1 116 
6 0 0 3 0 0 1 116 
6 0 0 3 0 0 1 117 
5 0 0 1 0 0 1 119 
5 0 0 3 0 0 2 119 365 
2 0 0 2 0 0 1 120 
8 0 0 5 0 0 1 122 
10 0 0 2 0 0 1 122 
0 0 0 0 0 0 1 123 
0 0 0 0 0 0 5 124 156 168 200 232 
0 0 0 0 0 0 2 125 128 
4 0 1 1 1 0 1 126 
10 0 2 2 3 0 1 127 
7 0 4 5 4 0 1 129 
1 0 4 3 5 0 1 129 
3 0 4 3 2 0 1 130 
7 0 1 1 1 0 2 134 131 
1 0 2 1 2 0 1 132 
9 0 1 2 2 0 1 133 
9 0 2 2 4 0 3 138 136 135 
2 0 4 1 1 0 1 135 
7 0 2 6 4 0 2 139 137 
6 0 1 1 2 0 2 143 139 
6 0 1 4 1 0 3 143 141 140 
2 0 2 1 1 0 3 143 141 140 
5 0 3 2 4 0 2 141 140 
6 0 1 2 1 0 1 142 
3 0 4 4 2 0 1 142 
1 0 3 3 1 0 1 144 
2 0 4 4 2 0 1 144 
4 0 2 2 3 0 2 145 245 
6 0 4 1 2 0 1 146 
4 0 3 4 5 0 2 150 147 
4 0 2 3 3 0 1 148 
6 0 5 2 2 0 1 149 
8 0 2 3 3 0 1 151 
5 0 1 3 4 0 1 151 
2 0 2 1 3 0 1 152 
9 0 2 3 2 0 1 153 
2 0 2 2 3 0 1 154 
10 0 4 3 2 0 1 155 
0 0 0 0 0 0 1 424 
0 0 0 0 0 0 1 157 
1 0 1 0 0 0 2 159 158 
6 0 4 0 0 0 2 162 160 
6 0 1 0 0 0 2 162 161 
2 0 4 0 0 0 2 163 161 
3 0 2 0 0 0 1 164 
3 0 3 0 0 0 2 163 393 
8 0 4 0 0 0 1 165 
5 0 2 0 0 0 1 165 
1 0 3 0 0 0 1 166 
9 0 1 0 0 0 1 167 
0 0 0 0 0 0 5 264 286 308 330 352 
0 0 0 0 0 0 1 169 
2 1 0 1 0 1 2 172 170 
1 2 0 1 0 1 1 171 
10 5 0 3 0 1 2 174 173 
5 1 0 2 0 5 1 173 
6 4 0 2 0 1 1 175 
8 2 0 1 0 1 1 175 
3 2 0 3 0 1 2 179 176 
1 2 0 2 0 3 1 177 
10 3 0 3 0 1 2 181 178 
1 1 0 5 0 2 2 185 180 
6 2 0 1 0 3 2 181 180 
8 2 0 4 0 1 1 182 
3 3 0 2 0 2 1 182 
2 2 0 3 0 4 2 188 183 
1 3 0 1 0 2 1 184 
10 2 0 2 0 2 2 189 186 
1 2 0 3 0 5 2 189 187 
2 2 0 1 0 2 1 187 
8 4 0 1 0 1 2 192 190 
4 2 0 7 0 6 2 192 190 
4 3 0 2 0 3 2 192 191 
8 2 0 3 0 3 1 191 
1 4 0 3 0 2 1 193 
8 5 0 3 0 1 1 193 
3 1 0 4 0 4 1 194 
6 2 0 2 0 2 1 195 
4 2 0 2 0 4 1 196 
9 4 0 2 0 3 1 197 
4 2 0 4 0 3 1 198 
10 3 0 2 0 5 1 199 
0 0 0 0 0 0 1 424 
0 0 0 0 0 0 1 201 
7 1 0 1 0 1 1 202 
7 2 0 2 0 3 2 204 203 
7 4 0 3 0 1 2 206 205 
3 3 0 2 0 2 1 205 
6 1 0 2 0 1 1 207 
10 3 0 3 0 3 1 207 
10 2 0 2 0 3 2 210 208 
9 2 0 2 0 5 1 209 
10 2 0 2 0 5 1 211 
7 3 0 3 0 4 1 211 
2 1 0 5 0 1 3 216 213 212 
4 4 0 3 0 2 1 214 
10 1 0 3 0 1 1 214 
1 2 0 3 0 5 2 217 215 
7 4 0 3 0 1 1 218 
2 3 0 3 0 1 1 217 
3 1 0 4 0 2 2 221 219 
8 1 0 1 0 3 2 221 219 
4 2 0 3 0 3 1 220 
7 2 0 4 0 2 2 223 222 
7 4 0 4 0 2 2 223 222 
1 4 0 4 0 2 1 224 
4 2 0 2 0 3 1 224 
6 5 0 2 0 2 1 225 
5 3 0 1 0 5 1 226 
5 3 0 1 0 4 1 227 
5 4 0 1 0 1 1 228 
6 2 0 4 0 2 1 229 
10 2 0 1 0 3 1 230 
6 2 0 1 0 2 1 231 
0 0 0 0 0 0 1 424 
0 0 0 0 0 0 2 233 257 
3 0 1 1 1 0 1 234 
8 0 1 3 3 0 1 235 
9 0 2 2 2 0 1 236 
2 0 2 1 2 0 1 237 
7 0 1 3 2 0 2 246 238 
4 0 2 2 3 0 1 239 
4 0 2 4 4 0 1 240 
8 0 3 2 3 0 3 249 243 241 
10 0 2 4 3 0 2 245 242 
8 0 3 5 3 0 3 251 248 244 
9 0 6 2 4 0 2 251 250 
5 0 4 1 2 0 1 247 
4 0 2 3 1 0 1 247 
3 0 1 3 2 0 1 247 
5 0 2 1 1 0 1 250 
4 0 4 3 2 0 1 250 
6 0 3 2 4 0 1 251 
9 0 2 2 2 0 1 252 
8 0 1 3 3 0 1 252 
3 0 4 1 1 0 1 253 
3 0 4 1 4 0 2 262 254 
10 0 2 4 3 0 1 255 
6 0 3 2 3 0 1 256 
10 0 1 2 1 0 1 258 
8 0 3 3 2 0 1 258 
7 0 3 5 2 0 1 259 
1 0 2 4 4 0 1 260 
3 0 3 4 3 0 1 261 
3 0 4 1 3 0 1 263 
5 0 2 1 2 0 1 263 
0 0 0 0 0 0 1 424 
0 0 0 0 0 0 3 265 271 275 
10 1 0 0 0 1 3 284 281 266 
2 2 0 0 0 2 1 267 
8 4 0 0 0 2 1 268 
3 3 0 0 0 3 1 269 
9 3 0 0 0 2 1 270 
10 2 0 0 0 4 1 272 
9 6 0 0 0 1 1 272 
7 4 0 0 0 2 1 273 
2 1 0 0 0 3 1 274 
7 3 0 0 0 3 2 283 276 
10 2 0 0 0 5 2 281 277 
5 1 0 0 0 2 1 277 
4 2 0 0 0 2 1 278 
7 1 0 0 0 4 1 279 
9 2 0 0 0 1 1 280 
7 2 0 0 0 1 1 282 
7 4 0 0 0 4 1 282 
3 4 0 0 0 3 1 285 
4 1 0 0 0 1 1 285 
2 2 0 0 0 4 1 285 
0 0 0 0 0 0 1 424 
0 0 0 0 0 0 3 287 296 301 
2 0 0 1 1 0 1 288 
8 0 0 2 1 0 1 289 
2 0 0 1 2 0 1 290 
5 0 0 3 2 0 2 305 291 
7 0 0 2 1 0 1 292 
3 0 0 2 4 0 1 293 
8 0 0 1 2 0 2 304 294 
3 0 0 3 3 0 1 295 
4 0 0 3 2 0 1 297 
2 0 0 1 3 0 2 306 299 
9 0 0 6 2 0 1 298 
6 0 0 2 5 0 1 299 
10 0 0 3 2 0 1 300 
5 0 0 2 2 0 1 302 
4 0 0 3 5 0 1 302 
7 0 0 2 3 0 1 303 
8 0 0 4 2 0 1 307 
6 0 0 3 3 0 1 307 
3 0 0 2 1 0 1 307 
7 0 0 4 4 0 1 307 
0 0 0 0 0 0 1 424 
0 0 0 0 0 0 3 309 321 324 
4 0 0 1 0 1 2 328 310 
1 0 0 4 0 4 1 311 
3 0 0 5 0 3 1 312 
2 0 0 2 0 2 1 313 
9 0 0 2 0 3 1 314 
5 0 0 1 0 4 1 315 
6 0 0 3 0 1 2 327 316 
5 0 0 2 0 1 1 317 
2 0 0 4 0 3 1 318 
9 0 0 4 0 1 2 326 319 
8 0 0 3 0 1 1 320 
7 0 0 2 0 4 1 322 
10 0 0 3 0 2 1 322 
6 0 0 1 0 4 1 323 
8 0 0 4 0 4 1 325 
4 0 0 1 0 2 1 326 
4 0 0 1 0 2 1 329 
10 0 0 2 0 4 1 329 
10 0 0 4 0 3 1 329 
5 0 0 1 0 1 1 329 
0 0 0 0 0 0 1 424 
0 0 0 0 0 0 1 331 
4 0 1 0 1 0 2 336 332 
4 0 3 0 5 0 2 340 333 
2 0 1 0 2 0 1 334 
8 0 2 0 3 0 2 342 335 
2 0 3 0 4 0 2 345 337 
5 0 2 0 1 0 3 345 342 339 
7 0 4 0 2 0 1 338 
4 0 3 0 4 0 1 339 
7 0 3 0 2 0 2 343 341 
2 0 3 0 2 0 2 344 342 
2 0 3 0 2 0 1 344 
10 0 1 0 1 0 1 343 
3 0 1 0 6 0 1 346 
1 0 4 0 3 0 1 346 
4 0 6 0 4 0 1 346 
6 0 1 0 2 0 1 347 
10 0 3 0 1 0 1 348 
2 0 2 0 2 0 1 349 
9 0 2 0 1 0 1 350 
1 0 2 0 2 0 1 351 
0 0 0 0 0 0 1 424 
0 0 0 0 0 0 3 353 358 362 
10 1 0 0 0 0 1 354 
6 3 0 0 0 0 1 355 
3 4 0 0 0 0 2 361 356 
4 1 0 0 0 0 1 357 
9 2 0 0 0 0 1 359 
3 2 0 0 0 0 1 359 
9 4 0 0 0 0 1 360 
6 3 0 0 0 0 1 363 
10 1 0 0 0 0 1 363 
10 4 0 0 0 0 1 363 
0 0 0 0 0 0 5 364 376 388 400 412 
0 0 0 0 0 0 2 365 369 
8 0 0 0 1 0 1 366 
7 0 0 0 3 0 1 367 
7 0 0 0 3 0 1 368 
10 0 0 0 2 0 3 374 373 370 
5 0 0 0 2 0 3 374 373 371 
2 0 0 0 3 0 1 371 
8 0 0 0 1 0 1 372 
2 0 0 0 4 0 1 375 
3 0 0 0 4 0 1 375 
6 0 0 0 2 0 1 375 
0 0 0 0 0 0 1 424 
0 0 0 0 0 0 1 377 
10 1 0 0 0 0 1 378 
5 3 0 0 0 0 2 386 379 
10 1 0 0 0 0 1 380 
6 3 0 0 0 0 2 385 381 
10 2 0 0 0 0 2 384 382 
1 1 0 0 0 0 1 383 
1 3 0 0 0 0 1 387 
2 4 0 0 0 0 1 387 
10 3 0 0 0 0 1 387 
5 4 0 0 0 0 1 387 
0 0 0 0 0 0 1 424 
0 0 0 0 0 0 2 389 391 
8 0 0 0 0 1 1 390 
1 0 0 0 0 2 1 392 
6 0 0 0 0 3 1 392 
4 0 0 0 0 2 2 394 393 
8 0 0 0 0 4 2 397 395 
8 0 0 0 0 2 2 397 396 
1 0 0 0 0 3 1 396 
8 0 0 0 0 2 1 398 
6 0 0 0 0 5 1 398 
6 0 0 0 0 1 1 399 
0 0 0 0 0 0 1 424 
0 0 0 0 0 0 2 401 404 
8 0 0 0 0 1 2 405 402 
4 0 0 0 0 1 1 403 
5 0 0 0 0 2 2 410 406 
10 0 0 0 0 2 1 405 
10 0 0 0 0 8 2 410 407 
2 0 0 0 0 1 1 407 
2 0 0 0 0 5 1 408 
7 0 0 0 0 1 1 409 
3 0 0 0 0 1 1 411 
6 0 0 0 0 3 1 411 
0 0 0 0 0 0 1 424 
0 0 0 0 0 0 1 413 
1 0 0 1 0 0 1 414 
6 0 0 1 0 0 2 416 415 
8 0 0 4 0 0 2 418 417 
3 0 0 3 0 0 2 419 418 
10 0 0 6 0 0 2 421 419 
6 0 0 1 0 0 2 421 420 
9 0 0 2 0 0 1 420 
6 0 0 2 0 0 1 422 
7 0 0 1 0 0 1 422 
2 0 0 4 0 0 1 423 
0 0 0 0 0 0 1 424 
0 0 0 0 0 0 0 
